(set-logic QF_S)
(declare-fun var0 () String)
(declare-fun var1 () String)
(declare-fun var2 () String)
(declare-fun var3 () Int)
(declare-fun var4 () Int)
(declare-fun var5 () Int)
(declare-fun var6 () Bool)
(declare-fun var7 () Bool)
(declare-fun var8 () Bool)
(assert (<= (str.len var1) (str.indexof var1 var1 var4)))
(assert (< (str.indexof var1 var0 var4) (str.len "0.zj+!#rr\\")))
(assert (> (str.indexof (str.substr var2 var5 var5) (str.substr var0 var3 var3) (str.len var1)) (str.len "j2&ESt|J-j")))
(assert (< (str.indexof "Rtn^=`7n]K" var2 var5) (str.len var1)))
(check-sat)